50 9406

59
467
158
234
383
52
110
24
152
466
235
481
131
18
280
24
282
194
400
196
168
85
17
95
380
267
349
151
235
253
190
404
129
305
172
494
19
152
483
481
267
282
120
346
491
247
297
124
146
263
